27	3

10	10	10	

0	0	0	0	3	2	3	4	
2	3	5	2	1	5	
4	5	4	3	3	5	6	8	
8	5	2	2	1	7	
1	4	1	4	1	10	
3	5	5	4	1	9	
1	3	5	2	2	11	12	
9	2	4	4	1	10	
2	3	2	2	1	13	
2	3	2	4	2	13	15	
9	3	3	2	2	13	14	
3	4	1	4	2	13	16	
5	1	4	4	1	20	
2	2	2	2	3	17	18	19	
2	5	5	4	1	17	
2	1	5	4	1	17	
4	4	5	4	1	23	
2	3	2	3	2	21	24	
2	5	3	3	1	21	
1	2	4	6	2	21	22	
2	1	6	2	1	26	
5	3	2	1	1	25	
3	1	0	4	1	26	
3	2	2	1	1	25	
6	0	1	3	1	27	
2	2	2	2	1	27	
0	0	0	0	0	
